c 139_4_checker_5cl.cnf
c
c field = 139
c formula set type = 4_checker_5cl
c
p cnf 5 6
270 
272 
274 
278 
-280 
271 
273 
275 
279 
-281 
180 
212 
244 
308 
-340 
181 
213 
245 
309 
-341 
248 
304 
332 
360 
-220 
249 
305 
333 
361 
-221 
